c A SAT instance generated from a 3-CNF formula that had 32 clauses and 8 variables
p cnf 8 32
5 -1 -7 0
-8 6 -2 0
-6 7 4 0
7 -8 -3 0
-6 -5 -3 0
-1 7 3 0
-5 6 4 0
-4 3 2 0
1 7 -3 0
5 3 -1 0
8 -6 -5 0
-6 -7 -1 0
-1 2 -6 0
-6 4 -2 0
-3 8 -7 0
-1 -2 -4 0
-4 -5 2 0
7 -6 -4 0
-6 -7 -4 0
-5 -8 -7 0
3 5 -4 0
5 -1 3 0
4 -6 3 0
-6 -8 -4 0
8 7 1 0
6 -3 -7 0
-3 4 -2 0
-6 3 1 0
8 5 -1 0
-8 1 2 0
-8 4 1 0
-3 7 2 0
